n_skills = 12;
n_workers = 7;
has_skills = [{3, 9}, {8, 9}, {4, 5, 6, 7, 8, 9}, {10, 11, 12}, {7, 8, 9, 11, 12}, {1, 2, 3}, {6}];
n_tasks = 30;
d = [5, 4, 2, 3, 3, 7, 1, 3, 2, 3, 3, 1, 3, 3, 2, 3, 3, 3, 4, 2, 1, 1, 2, 3, 3, 1, 6, 4, 5, 2];
rr = [| 0, 0, 0, 0, 0, 0, 1, 0, 0, 0, 0, 0, 0, 0, 0, 0, 0, 1, 0, 0, 0, 0, 0, 0, 0, 0, 0, 0, 0, 0
      | 0, 0, 0, 0, 0, 0, 0, 0, 0, 0, 0, 0, 0, 0, 0, 0, 0, 0, 0, 1, 0, 0, 0, 0, 1, 0, 0, 0, 0, 0
      | 0, 0, 1, 0, 1, 0, 0, 0, 0, 0, 0, 0, 0, 0, 0, 1, 0, 0, 0, 0, 0, 0, 0, 0, 0, 0, 0, 2, 1, 1
      | 0, 0, 0, 0, 0, 0, 0, 0, 1, 0, 0, 0, 0, 0, 0, 0, 0, 0, 0, 0, 0, 0, 0, 0, 0, 0, 0, 0, 0, 0
      | 1, 0, 0, 0, 1, 0, 0, 0, 0, 0, 0, 0, 0, 1, 0, 0, 0, 0, 0, 0, 0, 0, 0, 0, 0, 0, 0, 0, 1, 0
      | 0, 0, 0, 0, 0, 0, 0, 0, 0, 0, 0, 0, 0, 0, 0, 0, 0, 1, 0, 0, 0, 0, 0, 0, 0, 0, 0, 0, 0, 0
      | 0, 1, 0, 0, 0, 0, 0, 0, 0, 0, 1, 0, 0, 0, 0, 0, 0, 0, 0, 0, 0, 0, 0, 0, 0, 1, 0, 0, 0, 0
      | 0, 0, 0, 1, 0, 0, 1, 0, 0, 0, 0, 1, 1, 0, 1, 0, 0, 0, 0, 0, 0, 0, 0, 1, 1, 1, 1, 0, 0, 0
      | 0, 1, 0, 1, 0, 0, 0, 0, 0, 1, 0, 0, 0, 0, 1, 0, 1, 0, 0, 0, 1, 1, 1, 0, 0, 0, 0, 0, 0, 0
      | 1, 0, 0, 0, 0, 1, 0, 1, 1, 0, 0, 0, 0, 0, 0, 0, 0, 0, 0, 0, 1, 0, 0, 0, 0, 0, 1, 0, 0, 0
      | 0, 0, 0, 0, 0, 0, 0, 0, 0, 0, 0, 0, 0, 0, 0, 1, 0, 0, 1, 1, 0, 0, 0, 1, 0, 0, 0, 0, 0, 0
      | 0, 1, 0, 0, 0, 0, 0, 0, 0, 0, 0, 0, 0, 0, 0, 0, 0, 0, 0, 0, 0, 0, 0, 0, 0, 0, 0, 0, 0, 0 |];
suc = [{4, 5, 6}, {9, 13, 14}, {4, 6, 7}, {11, 12, 16}, {10, 12, 17}, {8, 13, 27}, {13, 21, 24}, {11, 20, 30}, {10}, {15, 16}, {15, 23}, {15, 18, 21}, {20, 22, 23}, {19, 21, 24}, {29}, {18, 19}, {18, 20, 24}, {22, 27, 28}, {22, 26}, {25, 28}, {23, 26}, {25, 30}, {28}, {25, 26, 30}, {29}, {27}, {29}, {}, {}, {}];

maxMakeSpan = 35;

% 1.) Work with some other agent
workTogether =   [{1,2}, {3,4}, {1,3}, {2,4,6}, {5,6},{6,7}];
scWorkTogether = [    1,     2,     3,       4,     5,    6];

% 2.) Do not work with other agent
workNotTogether =   [{1,4}, {2,3}, {1,6}, {2,4,7}];
scWorkNotTogether = [    7,     8,     9,      10];

% 3.) Work on certain task preferably
desiredTaskWorkers = [4,   5,  6,  7];
desiredTasks =       [17,  3,  4,  2];
scDesireds =         [11, 12, 13, 14];

% 4.) Do not work on a certain task preferably  
avoidedTaskWorkers = [1,   1,  6];
avoidedTasks =       [2,   3, 19];
scAvoideds =         [15, 16, 17];

crTempEdges = [| 3, 1 |
                 2, 3 |
                 2, 4 |
                 4, 1 |
                 1, 6 |
                 1, 7 |
                 8, 3 |
                10, 4 |
                12, 4 |
                15, 1 |
                16, 15 |
                12, 17 |];

